Al As  O 
 1.0000000000000000
     0.0000000000000000   14.0989002157318932   14.0989002157318932
    14.0989002157318932    0.0000000000000000   14.0989002157318932
    14.0989002157318932   14.0989002157318932    0.0000000000000000
  24  18   1
Cartesian
  2.8197800431463786  5.6395600862927573  8.4593401294391359
  5.6395600862927573  2.8197800431463786  8.4593401294391359
  8.4593401294391377 11.2791201725855146 19.7384603020246523
 11.2791201725855146  8.4593401294391377 19.7384603020246523
  2.8197800431463786  8.4593401294391359  5.6395600862927573
  8.4593401294391359  2.8197800431463786  5.6395600862927573
 11.2791201725855164 11.2791201725855164 16.9186802588782754
  5.6395600862927573  8.4593401294391359  2.8197800431463786
  8.4593401294391359  5.6395600862927573  2.8197800431463786
 11.2791201725855146 14.0989002157318950 14.0989002157318950
 11.2791201725855146 16.9186802588782719 16.9186802588782719
 14.0989002157318950 11.2791201725855146 14.0989002157318950
 14.0989002157318950 14.0989002157318950 16.9186802588782754
 16.9186802588782719 11.2791201725855146 16.9186802588782719
  8.4593401294391377 19.7384603020246523 11.2791201725855146
 11.2791201725855164 16.9186802588782754 11.2791201725855164
 14.0989002157318950 14.0989002157318950 11.2791201725855146
 14.0989002157318950 16.9186802588782754 14.0989002157318950
 16.9186802588782754 11.2791201725855164 11.2791201725855164
 16.9186802588782754 14.0989002157318950 14.0989002157318950
 19.7384603020246523  8.4593401294391377 11.2791201725855146
 11.2791201725855146 19.7384603020246523  8.4593401294391377
 16.9186802588782719 16.9186802588782719 11.2791201725855146
 19.7384603020246523 11.2791201725855146  8.4593401294391377
  9.8692301510123261  9.8692301510123261 18.3285702804514621
  7.0494501078659466  7.0494501078659466  7.0494501078659466
  9.8692301510123261 12.6890101941587066 15.5087902373050852
 12.6890101941587066  9.8692301510123261 15.5087902373050852
 12.6890101941587048 12.6890101941587048 18.3285702804514621
  7.0494501078659466  7.0494501078659466  1.4098900215731867
  9.8692301510123261 15.5087902373050817 12.6890101941587012
 15.5087902373050817  9.8692301510123261 12.6890101941587012
 15.5087902373050817 15.5087902373050817 18.3285702804514585
 12.6890101941587048 15.5087902373050834  9.8692301510123226
 12.6890101941587048 18.3285702804514621 12.6890101941587048
 15.5087902373050834 12.6890101941587048  9.8692301510123226
 15.5087902373050834 18.3285702804514621 15.5087902373050870
 18.3285702804514621 12.6890101941587048 12.6890101941587048
 18.3285702804514621 15.5087902373050834 15.5087902373050870
 21.1483503235978390 21.1483503235978390 23.9681303667442194
 21.1483503235978425 23.9681303667442194 21.1483503235978425
 23.9681303667442194 21.1483503235978425 21.1483503235978425
  0.0000000000000000  0.0000000000000000  0.0000000000000000
