Zn  O Zn  O Zn  O Zn  O Zn  O Zn  O Zn  O Zn  O Zn  O Zn  O Zn  O Zn  O Zn  O Zn  O Zn  O Zn  O Zn  O Zn  O 
 1.0000000000000000
     9.8763000000000005    0.0000000000000000    0.0000000000000000
    -4.9381500000000003    8.5531290000000002    0.0000000000000000
     0.0000000000000000    0.0000000000000000   15.8929590000000012
   1   2   2   1   1   2   2   2   1   1   2   1   2   2   2   1   1   2   2   1   1   2   2   2   1   2   1   1   2   2   2   1   1   2   2   2
Cartesian
 -0.0000016460500001  1.9006962836810002  2.3325672112060003
 -0.0000016460500001  1.9006962836810002  0.3164235160370000
  1.6460516460500005  0.9503467163190000  2.9652500160370003
 -0.0000016460500001  1.9006962836810002 12.9278732112060020
  1.6460516460500005  0.9503467163190000 15.5766997112060004
  1.6460516460500005  0.9503467163190000 13.5605560160370011
 -1.6460516460499999  4.7517392836810002  2.3325672112060003
 -1.6460516460499999  4.7517392836810002  0.3164235160370000
  0.0000016460499999  3.8013897163190000  2.9652500160370003
 -1.6460516460499999  4.7517392836810002 12.9278732112060020
  0.0000016460499999  3.8013897163190000 15.5766997112060004
 -1.6460516460499999  4.7517392836810002 10.9117295160370009
  0.0000016460499999  3.8013897163190000 13.5605560160370011
 -1.6460483539499999  6.6524327163190007  4.9813937112060005
 -1.6460483539499999  6.6524327163190007  2.9652500160370003
 -1.6460483539499999  6.6524327163190007 10.2790467112060000
 -1.6460483539499999  6.6524327163190007 15.5766997112060004
 -1.6460483539499999  6.6524327163190007 13.5605560160370011
  3.2920983539499993  1.9006962836810002  2.3325672112060003
  4.9381516460500006  0.9503467163190000  4.9813937112060005
  3.2920983539499993  1.9006962836810002  0.3164235160370000
  4.9381516460500006  0.9503467163190000  2.9652500160370003
  3.2920983539499993  1.9006962836810002 12.9278732112060020
  4.9381516460500006  0.9503467163190000 15.5766997112060004
  4.9381516460500006  0.9503467163190000 13.5605560160370011
  1.6460483539500004  4.7517392836810002  2.3325672112060003
  1.6460483539500004  4.7517392836810002  0.3164235160370000
  3.2921016460499999  3.8013897163190000  2.9652500160370003
  1.6460483539500004  4.7517392836810002 12.9278732112060020
  3.2921016460499999  3.8013897163190000 15.5766997112060004
  3.2921016460499999  3.8013897163190000 13.5605560160370011
 -0.0000016460500003  7.6027822836810008  2.3325672112060003
 -0.0000016460500003  7.6027822836810008  0.3164235160370000
  1.6460516460500005  6.6524327163190007  2.9652500160370003
 -0.0000016460500003  7.6027822836810008 12.9278732112060020
  1.6460516460500005  6.6524327163190007 15.5766997112060004
 -0.0000016460500003  7.6027822836810008 10.9117295160370009
  1.6460516460500005  6.6524327163190007 13.5605560160370011
  6.5841983539500006  1.9006962836810002  2.3325672112060003
  6.5841983539500006  1.9006962836810002  0.3164235160370000
  6.5841983539500006  1.9006962836810002  5.6140765160370005
  6.5841983539500006  1.9006962836810002 12.9278732112060020
  6.5841983539500006  1.9006962836810002 10.9117295160370009
  4.9381483539500000  4.7517392836810002  2.3325672112060003
  6.5842016460499995  3.8013897163190000  4.9813937112060005
  4.9381483539500000  4.7517392836810002  0.3164235160370000
  6.5842016460499995  3.8013897163190000  2.9652500160370003
  4.9381483539500000  4.7517392836810002 12.9278732112060020
  6.5842016460499995  3.8013897163190000 15.5766997112060004
  6.5842016460499995  3.8013897163190000 13.5605560160370011
  3.2920983539500002  7.6027822836810008  2.3325672112060003
  3.2920983539500002  7.6027822836810008  0.3164235160370000
  4.9381516460500006  6.6524327163190007  2.9652500160370003
  3.2920983539500002  7.6027822836810008 12.9278732112060020
  4.9381516460500006  6.6524327163190007 15.5766997112060004
  4.9381516460500006  6.6524327163190007 13.5605560160370011
  2.4690750000000001  4.2765645000000001  7.9464795000000006
