Zn2 O2
1.0
3.292100 0.000000 0.000000
-1.646050 2.851043 0.000000
0.000000 0.000000 5.297653
Zn O
2 2
direct
0.333333 0.666667 0.440302 Zn
0.666667 0.333333 0.940302 Zn
0.333333 0.666667 0.059729 O
0.666667 0.333333 0.559729 O
