Al As
   5.73375500000000
     0.0000000000000000    0.4917859314090641    0.4917859314090641
     0.4917859314090641    0.0000000000000000    0.4917859314090641
     0.4917859314090641    0.4917859314090641    0.0000000000000000
   Al   As
     1     1
Direct
  0.0000000000000000  0.0000000000000000  0.0000000000000000
  0.2500000000000000  0.2500000000000000  0.2500000000000000

  0.00000000E+00  0.00000000E+00  0.00000000E+00
  0.00000000E+00  0.00000000E+00  0.00000000E+00

