Cs1 Cl1
1.0
4.209055 0.000000 0.000000
0.000000 4.209055 0.000000
0.000000 0.000000 4.209055
Cs Cl
1 1
direct
0.000000 0.000000 0.000000 Cs
0.500000 0.500000 0.500000 Cl
