Al As 
 1.0000000000000000
     0.0000000000000000   14.0989002157318932   14.0989002157318932
    14.0989002157318932    0.0000000000000000   14.0989002157318932
    14.0989002157318932   14.0989002157318932    0.0000000000000000
  89  95
Cartesian
  2.8197800431463786 11.2791201725855146 14.0989002157318932
  5.6395600862927573  8.4593401294391377 14.0989002157318950
  5.6395600862927573 11.2791201725855146 16.9186802588782719
  8.4593401294391377  5.6395600862927573 14.0989002157318950
  8.4593401294391377  8.4593401294391377 16.9186802588782754
  8.4593401294391377 11.2791201725855146 19.7384603020246523
 11.2791201725855146  2.8197800431463786 14.0989002157318932
 11.2791201725855146  5.6395600862927573 16.9186802588782719
 11.2791201725855146  8.4593401294391377 19.7384603020246523
 11.2791201725855146 11.2791201725855146 22.5582403451710292
  2.8197800431463786 14.0989002157318932 11.2791201725855146
  5.6395600862927573  8.4593401294391359  8.4593401294391359
  5.6395600862927582 11.2791201725855181 11.2791201725855164
  5.6395600862927573 14.0989002157318932 14.0989002157318932
  8.4593401294391359  5.6395600862927573  8.4593401294391359
  8.4593401294391359  8.4593401294391359 11.2791201725855146
  8.4593401294391359 11.2791201725855164 14.0989002157318950
  8.4593401294391359 14.0989002157318932 16.9186802588782719
 11.2791201725855181  5.6395600862927582 11.2791201725855164
 11.2791201725855164  8.4593401294391359 14.0989002157318950
 11.2791201725855164 11.2791201725855164 16.9186802588782754
 11.2791201725855164 14.0989002157318932 19.7384603020246523
 14.0989002157318932  2.8197800431463786 11.2791201725855146
 14.0989002157318932  5.6395600862927573 14.0989002157318932
 14.0989002157318932  8.4593401294391359 16.9186802588782719
 14.0989002157318932 11.2791201725855164 19.7384603020246523
 14.0989002157318932 14.0989002157318932 22.5582403451710292
  5.6395600862927573 14.0989002157318950  8.4593401294391377
  5.6395600862927573 16.9186802588782719 11.2791201725855146
  8.4593401294391359  8.4593401294391359  5.6395600862927573
  8.4593401294391359 11.2791201725855146  8.4593401294391377
  8.4593401294391359 14.0989002157318950 11.2791201725855181
  8.4593401294391359 16.9186802588782719 14.0989002157318932
 11.2791201725855146  8.4593401294391359  8.4593401294391377
 11.2791201725855146 11.2791201725855146 11.2791201725855146
 11.2791201725855146 14.0989002157318950 14.0989002157318950
 11.2791201725855146 16.9186802588782719 16.9186802588782719
 14.0989002157318950  5.6395600862927573  8.4593401294391377
 14.0989002157318950  8.4593401294391359 11.2791201725855181
 14.0989002157318950 11.2791201725855146 14.0989002157318950
 14.0989002157318950 14.0989002157318950 16.9186802588782754
 14.0989002157318950 16.9186802588782719 19.7384603020246523
 16.9186802588782719  5.6395600862927573 11.2791201725855146
 16.9186802588782719  8.4593401294391359 14.0989002157318932
 16.9186802588782719 11.2791201725855146 16.9186802588782719
 16.9186802588782719 14.0989002157318950 19.7384603020246523
 16.9186802588782719 16.9186802588782719 22.5582403451710292
  8.4593401294391377 14.0989002157318950  5.6395600862927573
  8.4593401294391377 16.9186802588782754  8.4593401294391377
  8.4593401294391377 19.7384603020246523 11.2791201725855146
 11.2791201725855164 11.2791201725855164  5.6395600862927573
 11.2791201725855164 14.0989002157318950  8.4593401294391359
 11.2791201725855164 16.9186802588782754 11.2791201725855164
 11.2791201725855164 19.7384603020246523 14.0989002157318932
 14.0989002157318950  8.4593401294391377  5.6395600862927573
 14.0989002157318950 11.2791201725855164  8.4593401294391359
 14.0989002157318950 14.0989002157318950 11.2791201725855146
 14.0989002157318950 16.9186802588782754 14.0989002157318950
 14.0989002157318968 19.7384603020246523 16.9186802588782683
 16.9186802588782754  8.4593401294391377  8.4593401294391377
 16.9186802588782754 11.2791201725855164 11.2791201725855164
 16.9186802588782754 14.0989002157318950 14.0989002157318950
 16.9186802588782754 16.9186802588782754 16.9186802588782754
 16.9186802588782754 19.7384603020246523 19.7384603020246487
 19.7384603020246523  8.4593401294391377 11.2791201725855146
 19.7384603020246523 11.2791201725855164 14.0989002157318932
 19.7384603020246523 14.0989002157318968 16.9186802588782683
 19.7384603020246523 16.9186802588782754 19.7384603020246487
 11.2791201725855146 14.0989002157318932  2.8197800431463786
 11.2791201725855146 16.9186802588782719  5.6395600862927573
 11.2791201725855146 19.7384603020246523  8.4593401294391377
 11.2791201725855146 22.5582403451710292 11.2791201725855146
 14.0989002157318932 11.2791201725855146  2.8197800431463786
 14.0989002157318932 14.0989002157318932  5.6395600862927573
 14.0989002157318932 16.9186802588782719  8.4593401294391359
 14.0989002157318932 19.7384603020246523 11.2791201725855164
 14.0989002157318932 22.5582403451710292 14.0989002157318932
 16.9186802588782719 11.2791201725855146  5.6395600862927573
 16.9186802588782719 14.0989002157318932  8.4593401294391359
 16.9186802588782719 16.9186802588782719 11.2791201725855146
 16.9186802588782719 19.7384603020246523 14.0989002157318950
 16.9186802588782719 22.5582403451710292 16.9186802588782754
 19.7384603020246523 11.2791201725855146  8.4593401294391377
 19.7384603020246523 14.0989002157318932 11.2791201725855164
 19.7384603020246523 16.9186802588782719 14.0989002157318950
 19.7384603020246523 19.7384603020246523 16.9186802588782754
 22.5582403451710292 11.2791201725855146 11.2791201725855146
 22.5582403451710292 14.0989002157318932 14.0989002157318932
 22.5582403451710292 16.9186802588782719 16.9186802588782754
  1.4098900215731893 12.6890101941587048 12.6890101941587048
  4.2296700647195680  9.8692301510123261 12.6890101941587048
  4.2296700647195680 12.6890101941587030 15.5087902373050834
  7.0494501078659484  7.0494501078659484 12.6890101941587066
  7.0494501078659475  9.8692301510123244 15.5087902373050817
  7.0494501078659484 12.6890101941587048 18.3285702804514621
  9.8692301510123261  4.2296700647195680 12.6890101941587048
  9.8692301510123244  7.0494501078659475 15.5087902373050817
  9.8692301510123261  9.8692301510123261 18.3285702804514621
  9.8692301510123261 12.6890101941587048 21.1483503235978390
 12.6890101941587048  1.4098900215731893 12.6890101941587048
 12.6890101941587030  4.2296700647195680 15.5087902373050834
 12.6890101941587048  7.0494501078659484 18.3285702804514621
 12.6890101941587048  9.8692301510123261 21.1483503235978390
 12.6890101941587048 12.6890101941587048 23.9681303667442194
  4.2296700647195680 12.6890101941587066  9.8692301510123279
  4.2296700647195680 15.5087902373050834 12.6890101941587030
  7.0494501078659466  7.0494501078659466  7.0494501078659466
  7.0494501078659475  9.8692301510123261  9.8692301510123279
  7.0494501078659466 12.6890101941587048 12.6890101941587030
  7.0494501078659475 15.5087902373050834 15.5087902373050834
  9.8692301510123261  7.0494501078659475  9.8692301510123279
  9.8692301510123279  9.8692301510123279 12.6890101941587066
  9.8692301510123261 12.6890101941587066 15.5087902373050852
  9.8692301510123279 15.5087902373050834 18.3285702804514621
 12.6890101941587066  4.2296700647195680  9.8692301510123279
 12.6890101941587048  7.0494501078659466 12.6890101941587030
 12.6890101941587066  9.8692301510123261 15.5087902373050852
 12.6890101941587048 12.6890101941587048 18.3285702804514621
 12.6890101941587048 15.5087902373050852 21.1483503235978390
 15.5087902373050834  4.2296700647195680 12.6890101941587030
 15.5087902373050834  7.0494501078659475 15.5087902373050834
 15.5087902373050834  9.8692301510123279 18.3285702804514621
 15.5087902373050852 12.6890101941587048 21.1483503235978390
 15.5087902373050834 15.5087902373050834 23.9681303667442194
  7.0494501078659466 15.5087902373050834  9.8692301510123279
  7.0494501078659466 18.3285702804514621 12.6890101941587030
  9.8692301510123261  9.8692301510123261  7.0494501078659457
  9.8692301510123261 12.6890101941587048  9.8692301510123279
  9.8692301510123261 15.5087902373050817 12.6890101941587012
  9.8692301510123261 18.3285702804514621 15.5087902373050817
 12.6890101941587048  9.8692301510123261  9.8692301510123279
 12.6890101941587048 12.6890101941587048 12.6890101941587030
 12.6890101941587048 15.5087902373050834 15.5087902373050817
 12.6890101941587048 18.3285702804514621 18.3285702804514621
 15.5087902373050834  7.0494501078659466  9.8692301510123279
 15.5087902373050817  9.8692301510123261 12.6890101941587012
 15.5087902373050834 12.6890101941587048 15.5087902373050817
 15.5087902373050817 15.5087902373050817 18.3285702804514585
 15.5087902373050817 18.3285702804514621 21.1483503235978390
 18.3285702804514621  7.0494501078659466 12.6890101941587030
 18.3285702804514621  9.8692301510123261 15.5087902373050817
 18.3285702804514621 12.6890101941587048 18.3285702804514621
 18.3285702804514621 15.5087902373050817 21.1483503235978390
  9.8692301510123261 12.6890101941587048  4.2296700647195689
  9.8692301510123261 15.5087902373050834  7.0494501078659484
  9.8692301510123261 18.3285702804514621  9.8692301510123226
  9.8692301510123261 21.1483503235978390 12.6890101941587066
 12.6890101941587048  9.8692301510123261  4.2296700647195689
 12.6890101941587048 12.6890101941587048  7.0494501078659484
 12.6890101941587048 15.5087902373050834  9.8692301510123226
 12.6890101941587048 18.3285702804514621 12.6890101941587048
 12.6890101941587048 21.1483503235978390 15.5087902373050852
 15.5087902373050834  9.8692301510123261  7.0494501078659484
 15.5087902373050834 12.6890101941587048  9.8692301510123226
 15.5087902373050834 15.5087902373050834 12.6890101941587066
 15.5087902373050834 18.3285702804514621 15.5087902373050870
 15.5087902373050834 21.1483503235978390 18.3285702804514621
 18.3285702804514621  9.8692301510123261  9.8692301510123226
 18.3285702804514621 12.6890101941587048 12.6890101941587048
 18.3285702804514621 15.5087902373050834 15.5087902373050870
 18.3285702804514621 18.3285702804514621 18.3285702804514621
 21.1483503235978390  9.8692301510123261 12.6890101941587066
 21.1483503235978390 12.6890101941587048 15.5087902373050852
 21.1483503235978390 15.5087902373050834 18.3285702804514621
 12.6890101941587048 12.6890101941587048  1.4098900215731902
 12.6890101941587048 15.5087902373050834  4.2296700647195653
 12.6890101941587048 18.3285702804514621  7.0494501078659484
 12.6890101941587048 21.1483503235978425  9.8692301510123208
 12.6890101941587048 23.9681303667442194 12.6890101941587048
 15.5087902373050834 12.6890101941587048  4.2296700647195653
 15.5087902373050852 15.5087902373050852  7.0494501078659484
 15.5087902373050852 18.3285702804514621  9.8692301510123279
 15.5087902373050852 21.1483503235978425 12.6890101941587066
 15.5087902373050852 23.9681303667442194 15.5087902373050834
 18.3285702804514621 12.6890101941587048  7.0494501078659484
 18.3285702804514621 15.5087902373050852  9.8692301510123279
 18.3285702804514621 18.3285702804514621 12.6890101941587066
 18.3285702804514621 21.1483503235978425 15.5087902373050852
 21.1483503235978425 12.6890101941587048  9.8692301510123208
 21.1483503235978425 15.5087902373050852 12.6890101941587066
 21.1483503235978425 18.3285702804514621 15.5087902373050852
 23.9681303667442194 12.6890101941587048 12.6890101941587048
 23.9681303667442194 15.5087902373050834 15.5087902373050834
 23.9681303667442194 18.3285702804514621 18.3285702804514621
