Al As
   1.0
     0.0000000000000000   14.0989002157318932   14.0989002157318932
    14.0989002157318932    0.0000000000000000   14.0989002157318932
    14.0989002157318932   14.0989002157318932    0.0000000000000000
 125  125
Direct
  0.0000000000000000  0.0000000000000000  0.0000000000000000
  0.2000000000000000  0.0000000000000000  0.0000000000000000
  0.4000000000000000  0.0000000000000000  0.0000000000000000
  0.6000000000000001  0.0000000000000000  0.0000000000000000
  0.8000000000000000  0.0000000000000000  0.0000000000000000
  0.0000000000000000  0.2000000000000000  0.0000000000000000
  0.2000000000000000  0.2000000000000000  0.0000000000000000
  0.4000000000000000  0.2000000000000000  0.0000000000000000
  0.6000000000000001  0.2000000000000000  0.0000000000000000
  0.8000000000000000  0.2000000000000000  0.0000000000000000
  0.0000000000000000  0.4000000000000000  0.0000000000000000
  0.2000000000000000  0.4000000000000000  0.0000000000000000
  0.4000000000000000  0.4000000000000000  0.0000000000000000
  0.6000000000000001  0.4000000000000000  0.0000000000000000
  0.8000000000000000  0.4000000000000000  0.0000000000000000
  0.0000000000000000  0.6000000000000001  0.0000000000000000
  0.2000000000000000  0.6000000000000001  0.0000000000000000
  0.4000000000000000  0.6000000000000001  0.0000000000000000
  0.6000000000000001  0.6000000000000001  0.0000000000000000
  0.8000000000000000  0.6000000000000001  0.0000000000000000
  0.0000000000000000  0.8000000000000000  0.0000000000000000
  0.2000000000000000  0.8000000000000000  0.0000000000000000
  0.4000000000000000  0.8000000000000000  0.0000000000000000
  0.6000000000000001  0.8000000000000000  0.0000000000000000
  0.8000000000000000  0.8000000000000000  0.0000000000000000
  0.0000000000000000  0.0000000000000000  0.2000000000000000
  0.2000000000000000  0.0000000000000000  0.2000000000000000
  0.4000000000000000  0.0000000000000000  0.2000000000000000
  0.6000000000000001  0.0000000000000000  0.2000000000000000
  0.8000000000000000  0.0000000000000000  0.2000000000000000
  0.0000000000000000  0.2000000000000000  0.2000000000000000
  0.2000000000000000  0.2000000000000000  0.2000000000000000
  0.4000000000000000  0.2000000000000000  0.2000000000000000
  0.6000000000000001  0.2000000000000000  0.2000000000000000
  0.8000000000000000  0.2000000000000000  0.2000000000000000
  0.0000000000000000  0.4000000000000000  0.2000000000000000
  0.2000000000000000  0.4000000000000000  0.2000000000000000
  0.4000000000000000  0.4000000000000000  0.2000000000000000
  0.6000000000000001  0.4000000000000000  0.2000000000000000
  0.8000000000000000  0.4000000000000000  0.2000000000000000
  0.0000000000000000  0.6000000000000001  0.2000000000000000
  0.2000000000000000  0.6000000000000001  0.2000000000000000
  0.4000000000000000  0.6000000000000001  0.2000000000000000
  0.6000000000000001  0.6000000000000001  0.2000000000000000
  0.8000000000000000  0.6000000000000001  0.2000000000000000
  0.0000000000000000  0.8000000000000000  0.2000000000000000
  0.2000000000000000  0.8000000000000000  0.2000000000000000
  0.4000000000000000  0.8000000000000000  0.2000000000000000
  0.6000000000000001  0.8000000000000000  0.2000000000000000
  0.8000000000000000  0.8000000000000000  0.2000000000000000
  0.0000000000000000  0.0000000000000000  0.4000000000000000
  0.2000000000000000  0.0000000000000000  0.4000000000000000
  0.4000000000000000  0.0000000000000000  0.4000000000000000
  0.6000000000000001  0.0000000000000000  0.4000000000000000
  0.8000000000000000  0.0000000000000000  0.4000000000000000
  0.0000000000000000  0.2000000000000000  0.4000000000000000
  0.2000000000000000  0.2000000000000000  0.4000000000000000
  0.4000000000000000  0.2000000000000000  0.4000000000000000
  0.6000000000000001  0.2000000000000000  0.4000000000000000
  0.8000000000000000  0.2000000000000000  0.4000000000000000
  0.0000000000000000  0.4000000000000000  0.4000000000000000
  0.2000000000000000  0.4000000000000000  0.4000000000000000
  0.4000000000000000  0.4000000000000000  0.4000000000000000
  0.6000000000000001  0.4000000000000000  0.4000000000000000
  0.8000000000000000  0.4000000000000000  0.4000000000000000
  0.0000000000000000  0.6000000000000001  0.4000000000000000
  0.2000000000000000  0.6000000000000001  0.4000000000000000
  0.4000000000000000  0.6000000000000001  0.4000000000000000
  0.6000000000000001  0.6000000000000001  0.4000000000000000
  0.8000000000000000  0.6000000000000001  0.4000000000000000
  0.0000000000000000  0.8000000000000000  0.4000000000000000
  0.2000000000000000  0.8000000000000000  0.4000000000000000
  0.4000000000000000  0.8000000000000000  0.4000000000000000
  0.6000000000000001  0.8000000000000000  0.4000000000000000
  0.8000000000000000  0.8000000000000000  0.4000000000000000
  0.0000000000000000  0.0000000000000000  0.6000000000000001
  0.2000000000000000  0.0000000000000000  0.6000000000000001
  0.4000000000000000  0.0000000000000000  0.6000000000000001
  0.6000000000000001  0.0000000000000000  0.6000000000000001
  0.8000000000000000  0.0000000000000000  0.6000000000000001
  0.0000000000000000  0.2000000000000000  0.6000000000000001
  0.2000000000000000  0.2000000000000000  0.6000000000000001
  0.4000000000000000  0.2000000000000000  0.6000000000000001
  0.6000000000000001  0.2000000000000000  0.6000000000000001
  0.8000000000000000  0.2000000000000000  0.6000000000000001
  0.0000000000000000  0.4000000000000000  0.6000000000000001
  0.2000000000000000  0.4000000000000000  0.6000000000000001
  0.4000000000000000  0.4000000000000000  0.6000000000000001
  0.6000000000000001  0.4000000000000000  0.6000000000000001
  0.8000000000000000  0.4000000000000000  0.6000000000000001
  0.0000000000000000  0.6000000000000001  0.6000000000000001
  0.2000000000000000  0.6000000000000001  0.6000000000000001
  0.4000000000000000  0.6000000000000001  0.6000000000000001
  0.6000000000000001  0.6000000000000001  0.6000000000000001
  0.8000000000000000  0.6000000000000001  0.6000000000000001
  0.0000000000000000  0.8000000000000000  0.6000000000000001
  0.2000000000000000  0.8000000000000000  0.6000000000000001
  0.4000000000000000  0.8000000000000000  0.6000000000000001
  0.6000000000000001  0.8000000000000000  0.6000000000000001
  0.8000000000000000  0.8000000000000000  0.6000000000000001
  0.0000000000000000  0.0000000000000000  0.8000000000000000
  0.2000000000000000  0.0000000000000000  0.8000000000000000
  0.4000000000000000  0.0000000000000000  0.8000000000000000
  0.6000000000000001  0.0000000000000000  0.8000000000000000
  0.8000000000000000  0.0000000000000000  0.8000000000000000
  0.0000000000000000  0.2000000000000000  0.8000000000000000
  0.2000000000000000  0.2000000000000000  0.8000000000000000
  0.4000000000000000  0.2000000000000000  0.8000000000000000
  0.6000000000000001  0.2000000000000000  0.8000000000000000
  0.8000000000000000  0.2000000000000000  0.8000000000000000
  0.0000000000000000  0.4000000000000000  0.8000000000000000
  0.2000000000000000  0.4000000000000000  0.8000000000000000
  0.4000000000000000  0.4000000000000000  0.8000000000000000
  0.6000000000000001  0.4000000000000000  0.8000000000000000
  0.8000000000000000  0.4000000000000000  0.8000000000000000
  0.0000000000000000  0.6000000000000001  0.8000000000000000
  0.2000000000000000  0.6000000000000001  0.8000000000000000
  0.4000000000000000  0.6000000000000001  0.8000000000000000
  0.6000000000000001  0.6000000000000001  0.8000000000000000
  0.8000000000000000  0.6000000000000001  0.8000000000000000
  0.0000000000000000  0.8000000000000000  0.8000000000000000
  0.2000000000000000  0.8000000000000000  0.8000000000000000
  0.4000000000000000  0.8000000000000000  0.8000000000000000
  0.6000000000000001  0.8000000000000000  0.8000000000000000
  0.8000000000000000  0.8000000000000000  0.8000000000000000
  0.0500000000000000  0.0500000000000000  0.0500000000000000
  0.2500000000000000  0.0500000000000000  0.0500000000000000
  0.4500000000000000  0.0500000000000000  0.0500000000000000
  0.6500000000000000  0.0500000000000000  0.0500000000000000
  0.8500000000000001  0.0500000000000000  0.0500000000000000
  0.0500000000000000  0.2500000000000000  0.0500000000000000
  0.2500000000000000  0.2500000000000000  0.0500000000000000
  0.4500000000000000  0.2500000000000000  0.0500000000000000
  0.6500000000000000  0.2500000000000000  0.0500000000000000
  0.8500000000000001  0.2500000000000000  0.0500000000000000
  0.0500000000000000  0.4500000000000000  0.0500000000000000
  0.2500000000000000  0.4500000000000000  0.0500000000000000
  0.4500000000000000  0.4500000000000000  0.0500000000000000
  0.6500000000000000  0.4500000000000000  0.0500000000000000
  0.8500000000000001  0.4500000000000000  0.0500000000000000
  0.0500000000000000  0.6500000000000000  0.0500000000000000
  0.2500000000000000  0.6500000000000000  0.0500000000000000
  0.4500000000000000  0.6500000000000000  0.0500000000000000
  0.6500000000000000  0.6500000000000000  0.0500000000000000
  0.8500000000000001  0.6500000000000000  0.0500000000000000
  0.0500000000000000  0.8500000000000001  0.0500000000000000
  0.2500000000000000  0.8500000000000001  0.0500000000000000
  0.4500000000000000  0.8500000000000001  0.0500000000000000
  0.6500000000000000  0.8500000000000001  0.0500000000000000
  0.8500000000000001  0.8500000000000001  0.0500000000000000
  0.0500000000000000  0.0500000000000000  0.2500000000000000
  0.2500000000000000  0.0500000000000000  0.2500000000000000
  0.4500000000000000  0.0500000000000000  0.2500000000000000
  0.6500000000000000  0.0500000000000000  0.2500000000000000
  0.8500000000000001  0.0500000000000000  0.2500000000000000
  0.0500000000000000  0.2500000000000000  0.2500000000000000
  0.2500000000000000  0.2500000000000000  0.2500000000000000
  0.4500000000000000  0.2500000000000000  0.2500000000000000
  0.6500000000000000  0.2500000000000000  0.2500000000000000
  0.8500000000000001  0.2500000000000000  0.2500000000000000
  0.0500000000000000  0.4500000000000000  0.2500000000000000
  0.2500000000000000  0.4500000000000000  0.2500000000000000
  0.4500000000000000  0.4500000000000000  0.2500000000000000
  0.6500000000000000  0.4500000000000000  0.2500000000000000
  0.8500000000000001  0.4500000000000000  0.2500000000000000
  0.0500000000000000  0.6500000000000000  0.2500000000000000
  0.2500000000000000  0.6500000000000000  0.2500000000000000
  0.4500000000000000  0.6500000000000000  0.2500000000000000
  0.6500000000000000  0.6500000000000000  0.2500000000000000
  0.8500000000000001  0.6500000000000000  0.2500000000000000
  0.0500000000000000  0.8500000000000001  0.2500000000000000
  0.2500000000000000  0.8500000000000001  0.2500000000000000
  0.4500000000000000  0.8500000000000001  0.2500000000000000
  0.6500000000000000  0.8500000000000001  0.2500000000000000
  0.8500000000000001  0.8500000000000001  0.2500000000000000
  0.0500000000000000  0.0500000000000000  0.4500000000000000
  0.2500000000000000  0.0500000000000000  0.4500000000000000
  0.4500000000000000  0.0500000000000000  0.4500000000000000
  0.6500000000000000  0.0500000000000000  0.4500000000000000
  0.8500000000000001  0.0500000000000000  0.4500000000000000
  0.0500000000000000  0.2500000000000000  0.4500000000000000
  0.2500000000000000  0.2500000000000000  0.4500000000000000
  0.4500000000000000  0.2500000000000000  0.4500000000000000
  0.6500000000000000  0.2500000000000000  0.4500000000000000
  0.8500000000000001  0.2500000000000000  0.4500000000000000
  0.0500000000000000  0.4500000000000000  0.4500000000000000
  0.2500000000000000  0.4500000000000000  0.4500000000000000
  0.4500000000000000  0.4500000000000000  0.4500000000000000
  0.6500000000000000  0.4500000000000000  0.4500000000000000
  0.8500000000000001  0.4500000000000000  0.4500000000000000
  0.0500000000000000  0.6500000000000000  0.4500000000000000
  0.2500000000000000  0.6500000000000000  0.4500000000000000
  0.4500000000000000  0.6500000000000000  0.4500000000000000
  0.6500000000000000  0.6500000000000000  0.4500000000000000
  0.8500000000000001  0.6500000000000000  0.4500000000000000
  0.0500000000000000  0.8500000000000001  0.4500000000000000
  0.2500000000000000  0.8500000000000001  0.4500000000000000
  0.4500000000000000  0.8500000000000001  0.4500000000000000
  0.6500000000000000  0.8500000000000001  0.4500000000000000
  0.8500000000000001  0.8500000000000001  0.4500000000000000
  0.0500000000000000  0.0500000000000000  0.6500000000000000
  0.2500000000000000  0.0500000000000000  0.6500000000000000
  0.4500000000000000  0.0500000000000000  0.6500000000000000
  0.6500000000000000  0.0500000000000000  0.6500000000000000
  0.8500000000000001  0.0500000000000000  0.6500000000000000
  0.0500000000000000  0.2500000000000000  0.6500000000000000
  0.2500000000000000  0.2500000000000000  0.6500000000000000
  0.4500000000000000  0.2500000000000000  0.6500000000000000
  0.6500000000000000  0.2500000000000000  0.6500000000000000
  0.8500000000000001  0.2500000000000000  0.6500000000000000
  0.0500000000000000  0.4500000000000000  0.6500000000000000
  0.2500000000000000  0.4500000000000000  0.6500000000000000
  0.4500000000000000  0.4500000000000000  0.6500000000000000
  0.6500000000000000  0.4500000000000000  0.6500000000000000
  0.8500000000000001  0.4500000000000000  0.6500000000000000
  0.0500000000000000  0.6500000000000000  0.6500000000000000
  0.2500000000000000  0.6500000000000000  0.6500000000000000
  0.4500000000000000  0.6500000000000000  0.6500000000000000
  0.6500000000000000  0.6500000000000000  0.6500000000000000
  0.8500000000000001  0.6500000000000000  0.6500000000000000
  0.0500000000000000  0.8500000000000001  0.6500000000000000
  0.2500000000000000  0.8500000000000001  0.6500000000000000
  0.4500000000000000  0.8500000000000001  0.6500000000000000
  0.6500000000000000  0.8500000000000001  0.6500000000000000
  0.8500000000000001  0.8500000000000001  0.6500000000000000
  0.0500000000000000  0.0500000000000000  0.8500000000000001
  0.2500000000000000  0.0500000000000000  0.8500000000000001
  0.4500000000000000  0.0500000000000000  0.8500000000000001
  0.6500000000000000  0.0500000000000000  0.8500000000000001
  0.8500000000000001  0.0500000000000000  0.8500000000000001
  0.0500000000000000  0.2500000000000000  0.8500000000000001
  0.2500000000000000  0.2500000000000000  0.8500000000000001
  0.4500000000000000  0.2500000000000000  0.8500000000000001
  0.6500000000000000  0.2500000000000000  0.8500000000000001
  0.8500000000000001  0.2500000000000000  0.8500000000000001
  0.0500000000000000  0.4500000000000000  0.8500000000000001
  0.2500000000000000  0.4500000000000000  0.8500000000000001
  0.4500000000000000  0.4500000000000000  0.8500000000000001
  0.6500000000000000  0.4500000000000000  0.8500000000000001
  0.8500000000000001  0.4500000000000000  0.8500000000000001
  0.0500000000000000  0.6500000000000000  0.8500000000000001
  0.2500000000000000  0.6500000000000000  0.8500000000000001
  0.4500000000000000  0.6500000000000000  0.8500000000000001
  0.6500000000000000  0.6500000000000000  0.8500000000000001
  0.8500000000000001  0.6500000000000000  0.8500000000000001
  0.0500000000000000  0.8500000000000001  0.8500000000000001
  0.2500000000000000  0.8500000000000001  0.8500000000000001
  0.4500000000000000  0.8500000000000001  0.8500000000000001
  0.6500000000000000  0.8500000000000001  0.8500000000000001
  0.8500000000000001  0.8500000000000001  0.8500000000000001
